Mo1S2   [HEX,HEX,hP6] (STD_PRIM doi:10.1
1.0
        3.2013874054         0.0000000000         0.0000000000
       -1.6008295584         2.7724043796         0.0000000000
        0.0000000000         0.0000000000        20.4608144760
    Se   Mo
    2    1
Cartesian
     1.600754261         0.924073696         1.795063376
     1.600754261         0.924073696         4.935344219
    -0.000169277         1.848315120         3.365203619
