Mo1Se2                                  
   1.00000000000000     
    13.3296432495000001    0.0000000000000000    0.0000000000000000
    -6.6649753392999997   11.5437209289999991    0.0000000000000000
     0.0000000000000000    0.0000000000000000   20.0000000000000000
   Se   Mo   V 
    32    14     2
Direct
  0.0832383647527175  0.1666766239907089  0.4327202637579743
  0.0830882663935654  0.4162064203659792  0.4332965835056833
  0.0827878411064701  0.6663372417963912  0.4333286926102815
  0.0835131868322949  0.9168778350156309  0.4330189015901719
  0.3355150298111703  0.1696503569006226  0.4353569298551165
  0.3346739404978802  0.4157181417696347  0.4335990468305738
  0.3335388505184294  0.6663232560311478  0.4333367099442557
  0.3323336138901802  0.9146977237294394  0.4322067910688862
  0.5842245844641523  0.1696867545103705  0.4353616300275321
  0.5821205209441098  0.4141792799693806  0.4371380166231288
  0.5833841850641032  0.6667689881625019  0.4325440885362563
  0.5833222829987794  0.9168643328597589  0.4330237465598862
  0.8334610381881409  0.1666942939455892  0.4326846952623437
  0.8309627689503318  0.4156895047651327  0.4335929206196538
  0.8333955021913240  0.6667671495222562  0.4324980245237516
  0.8331760097073581  0.9163927190430965  0.4335650390856942
  0.0832383647527175  0.1666766239907089  0.5999582452420259
  0.0830882663935654  0.4162064203659792  0.5993819254943167
  0.0827878411064701  0.6663372417963912  0.5993498163897186
  0.0835131868322949  0.9168778350156309  0.5996596074098280
  0.3355150298111703  0.1696503569006226  0.5973215791448836
  0.3346739404978802  0.4157181417696347  0.5990794621694263
  0.3335388505184294  0.6663232560311478  0.5993417990557444
  0.3323336138901802  0.9146977237294394  0.6004717179311139
  0.5842245844641523  0.1696867545103705  0.5973168789724680
  0.5821205209441098  0.4141792799693806  0.5955404923768712
  0.5833841850641032  0.6667689881625019  0.6001344204637439
  0.5833222829987794  0.9168643328597589  0.5996547624401141
  0.8334610381881409  0.1666942939455892  0.5999938137376565
  0.8309627689503318  0.4156895047651327  0.5990855883803463
  0.8333955021913240  0.6667671495222562  0.6001804844762485
  0.8331760097073581  0.9163927190430965  0.5991134699143059
  0.1656176130609212  0.0832531792492812  0.5163392540000018
  0.1663120228885059  0.3321136370097528  0.5163392540000018
  0.1664966261043618  0.5829923875692370  0.5163392540000018
  0.1671467194571097  0.8337843460506984  0.5163392540000018
  0.4140528087817249  0.0780482316805493  0.5163392540000018
  0.4177664351818291  0.5835484632503362  0.5163392540000018
  0.4165939935144889  0.8337573752102212  0.5163392540000018
  0.6676837496412450  0.0832616925324586  0.5163392540000018
  0.6683485879435911  0.5866115234469115  0.5163392540000018
  0.6654767159552899  0.8325862329639605  0.5163392540000018
  0.9170540851698510  0.0841324041342127  0.5163392540000018
  0.9157708431278871  0.3321149254404194  0.5163392540000018
  0.9157477157573873  0.5835586226634496  0.5163392540000018
  0.9170670122629091  0.8325603723898872  0.5163392540000018
  0.4137997318537021  0.3366520292771998  0.5163392540000018
  0.6728950576771766  0.3366628523761517  0.5163392540000018
 
  0.00000000E+00  0.00000000E+00  0.00000000E+00
  0.00000000E+00  0.00000000E+00  0.00000000E+00
  0.00000000E+00  0.00000000E+00  0.00000000E+00
  0.00000000E+00  0.00000000E+00  0.00000000E+00
  0.00000000E+00  0.00000000E+00  0.00000000E+00
  0.00000000E+00  0.00000000E+00  0.00000000E+00
  0.00000000E+00  0.00000000E+00  0.00000000E+00
  0.00000000E+00  0.00000000E+00  0.00000000E+00
  0.00000000E+00  0.00000000E+00  0.00000000E+00
  0.00000000E+00  0.00000000E+00  0.00000000E+00
  0.00000000E+00  0.00000000E+00  0.00000000E+00
  0.00000000E+00  0.00000000E+00  0.00000000E+00
  0.00000000E+00  0.00000000E+00  0.00000000E+00
  0.00000000E+00  0.00000000E+00  0.00000000E+00
  0.00000000E+00  0.00000000E+00  0.00000000E+00
  0.00000000E+00  0.00000000E+00  0.00000000E+00
  0.00000000E+00  0.00000000E+00  0.00000000E+00
  0.00000000E+00  0.00000000E+00  0.00000000E+00
  0.00000000E+00  0.00000000E+00  0.00000000E+00
  0.00000000E+00  0.00000000E+00  0.00000000E+00
  0.00000000E+00  0.00000000E+00  0.00000000E+00
  0.00000000E+00  0.00000000E+00  0.00000000E+00
  0.00000000E+00  0.00000000E+00  0.00000000E+00
  0.00000000E+00  0.00000000E+00  0.00000000E+00
  0.00000000E+00  0.00000000E+00  0.00000000E+00
  0.00000000E+00  0.00000000E+00  0.00000000E+00
  0.00000000E+00  0.00000000E+00  0.00000000E+00
  0.00000000E+00  0.00000000E+00  0.00000000E+00
  0.00000000E+00  0.00000000E+00  0.00000000E+00
  0.00000000E+00  0.00000000E+00  0.00000000E+00
  0.00000000E+00  0.00000000E+00  0.00000000E+00
  0.00000000E+00  0.00000000E+00  0.00000000E+00
  0.00000000E+00  0.00000000E+00  0.00000000E+00
  0.00000000E+00  0.00000000E+00  0.00000000E+00
  0.00000000E+00  0.00000000E+00  0.00000000E+00
  0.00000000E+00  0.00000000E+00  0.00000000E+00
  0.00000000E+00  0.00000000E+00  0.00000000E+00
  0.00000000E+00  0.00000000E+00  0.00000000E+00
  0.00000000E+00  0.00000000E+00  0.00000000E+00
  0.00000000E+00  0.00000000E+00  0.00000000E+00
  0.00000000E+00  0.00000000E+00  0.00000000E+00
  0.00000000E+00  0.00000000E+00  0.00000000E+00
  0.00000000E+00  0.00000000E+00  0.00000000E+00
  0.00000000E+00  0.00000000E+00  0.00000000E+00
  0.00000000E+00  0.00000000E+00  0.00000000E+00
  0.00000000E+00  0.00000000E+00  0.00000000E+00
  0.00000000E+00  0.00000000E+00  0.00000000E+00
  0.00000000E+00  0.00000000E+00  0.00000000E+00
